c File: instances/40_0.15_1.col
c
c Description: Random graph of size 40 vertices and P(0.15000000000000002) of edges between any two vertices.
p col 40 780
e 1 2
e 1 5
e 1 10
e 1 11
e 1 14
e 1 33
e 2 18
e 2 22
e 2 30
e 2 32
e 2 35
e 2 36
e 2 40
e 3 9
e 3 28
e 3 39
e 4 11
e 4 16
e 4 22
e 4 25
e 4 31
e 5 17
e 5 24
e 6 9
e 6 14
e 6 20
e 6 22
e 6 23
e 6 26
e 6 27
e 6 28
e 6 30
e 6 32
e 6 38
e 7 13
e 7 16
e 7 19
e 7 28
e 7 35
e 8 20
e 8 38
e 9 12
e 9 16
e 9 18
e 9 23
e 9 26
e 9 40
e 10 11
e 10 17
e 10 19
e 10 28
e 10 31
e 10 32
e 10 33
e 10 34
e 10 36
e 11 12
e 11 17
e 11 19
e 11 26
e 12 14
e 12 17
e 12 23
e 12 27
e 12 30
e 12 32
e 13 15
e 13 26
e 13 32
e 13 40
e 14 23
e 14 33
e 15 16
e 16 25
e 16 31
e 17 24
e 17 27
e 17 29
e 17 37
e 18 21
e 18 29
e 18 38
e 19 20
e 19 28
e 20 36
e 20 40
e 21 30
e 21 33
e 21 36
e 22 36
e 22 37
e 23 24
e 23 25
e 23 29
e 23 33
e 24 25
e 24 26
e 24 27
e 25 40
e 26 27
e 26 36
e 26 38
e 27 35
e 27 38
e 29 30
e 29 37
e 31 37
e 32 37
e 33 37
e 33 40
e 34 35
e 34 37
e 38 40